NAME : EIL51A.464.tour
COMMENT : Cost = 0_464
COMMENT : Found by LKH [Keld Helsgaun] Sun Sep 17 17:09:09 2017
TYPE : TOUR
DIMENSION : 51
TOUR_SECTION
1
27
51
46
32
11
5
12
47
18
4
17
37
15
10
49
38
9
21
29
20
35
36
3
28
31
26
8
48
6
14
24
43
7
23
25
13
41
19
40
42
44
45
33
39
30
34
50
16
2
22
-1
EOF
